N = 7;
Capacity = 13;
Demand = [9, 4, 10, 1, 7, 4, 1];
Distance = [|
  0, 56, 53, 59, 32, 21, 42, 18
| 56, 0, 110, 16, 69, 53, 15, 62
| 53, 110, 0, 111, 58, 63, 95, 53
| 59, 16, 111, 0, 63, 50, 19, 68
| 32, 69, 58, 63, 0, 16, 54, 49
| 21, 53, 63, 50, 16, 0, 38, 39
| 42, 15, 95, 19, 54, 38, 0, 49
| 18, 62, 53, 68, 49, 39, 49, 0
|];
